row=6;
column=6;
left=[5, 2, 0, 0, 0, 0];
right=[0, 3, 3, 0, 0, 0];
top=[3, 3, 3, 0, 0, 0];
bottom=[0, 2, 0, 4, 0, 0];
Board=[|0,0,0,0,0,6|0,4,3,0,0,0|2,0,1,0,0,0|0,0,0,1,6,2|0,0,0,3,0,5|0,5,0,2,0,0|]